(set-logic QF_S)
(declare-fun var0 () String)
(declare-fun var1 () String)
(declare-fun var2 () String)
(declare-fun var3 () String)
(declare-fun var4 () String)
(declare-fun var5 () String)
(declare-fun var6 () String)
(declare-fun var7 () String)
(declare-fun var8 () String)
(declare-fun var9 () String)
(declare-fun var10 () String)
(declare-fun var11 () String)
(declare-fun var12 () String)
(declare-fun var13 () String)
(declare-fun var14 () String)
(declare-fun var15 () String)
(declare-fun var16 () String)
(declare-fun var17 () String)
(declare-fun var18 () String)
(declare-fun var19 () String)
(declare-fun var20 () String)
(declare-fun var21 () String)
(declare-fun var22 () String)
(declare-fun var23 () String)
(declare-fun var24 () String)
(declare-fun var25 () String)
(declare-fun var26 () String)
(declare-fun var27 () String)
(declare-fun var28 () String)
(declare-fun var29 () String)
(declare-fun var30 () String)
(declare-fun var31 () String)
(declare-fun var32 () String)
(declare-fun var33 () String)
(declare-fun var34 () String)
(declare-fun var35 () String)
(declare-fun var36 () String)
(declare-fun var37 () String)
(declare-fun var38 () String)
(declare-fun var39 () String)
(declare-fun var40 () String)
(declare-fun var41 () String)
(declare-fun var42 () String)
(declare-fun var43 () String)
(declare-fun var44 () String)
(declare-fun var45 () String)
(declare-fun var46 () String)
(declare-fun var47 () String)
(declare-fun var48 () String)
(declare-fun var49 () String)
(declare-fun var50 () String)
(declare-fun var51 () String)
(declare-fun var52 () String)
(declare-fun var53 () String)
(declare-fun var54 () String)
(declare-fun var55 () String)
(declare-fun var56 () String)
(declare-fun var57 () String)
(declare-fun var58 () String)
(declare-fun var59 () String)
(declare-fun var60 () String)
(assert (= var0 (Concat var1 var2)))
(assert (= var2 (Concat var3 var4)))
(assert (= var4 (Concat var5 var6)))
(assert (= var6 (Concat var7 var8)))
(assert (= var8 (Concat var9 var10)))
(assert (= var10 (Concat var11 var12)))
(assert (= var12 (Concat var13 var14)))
(assert (= var14 (Concat var15 var16)))
(assert (= var16 (Concat var17 var18)))
(assert (= var18 (Concat var19 var20)))
(assert (= var20 (Concat var21 var22)))
(assert (= var22 (Concat var23 var24)))
(assert (= var24 (Concat var25 var26)))
(assert (= var26 (Concat var27 var28)))
(assert (= var28 (Concat var29 var30)))
(assert (= var30 (Concat var31 var32)))
(assert (= var32 (Concat var33 var34)))
(assert (= var34 (Concat var35 var36)))
(assert (= var36 (Concat var37 var38)))
(assert (= var38 (Concat var39 var40)))
(assert (= var40 (Concat var41 var42)))
(assert (= var42 (Concat var43 var44)))
(assert (= var44 (Concat var45 var46)))
(assert (= var46 (Concat var47 var48)))
(assert (= var48 (Concat var49 var50)))
(assert (= var50 (Concat var51 var52)))
(assert (= var52 (Concat var53 var54)))
(assert (= var54 (Concat var55 var56)))
(assert (= var56 (Concat var57 var58)))
(assert (= var58 (Concat var59 var60)))
(assert (= var0 "solution"))
(assert (= "G" (CharAt var28 643)))
(assert (= "K" (CharAt var6 37)))
(assert (= "a" (CharAt var50 248)))
(assert (= "," (CharAt var39 110)))
(assert (= "j" (CharAt var25 335)))
(assert (= "T" (CharAt var4 177)))
(assert (= "d" (CharAt var46 163)))
(assert (= "7" (CharAt var50 58)))
(assert (= "e" (CharAt var43 785)))
(assert (= "\\" (CharAt var58 52)))
(assert (= "-" (CharAt var7 340)))
(assert (= "J" (CharAt var28 756)))
(assert (= "H" (CharAt var12 408)))
(assert (= "+" (CharAt var13 952)))
(assert (= "+" (CharAt var12 470)))
(assert (= "$" (CharAt var59 346)))
(assert (= "]" (CharAt var0 211)))
(assert (= "1" (CharAt var57 33)))
(assert (= "?" (CharAt var53 932)))
(assert (= "v" (CharAt var48 145)))
(assert (= "w" (CharAt var3 471)))
(assert (= "^" (CharAt var26 854)))
(assert (= "N" (CharAt var48 672)))
(assert (= "v" (CharAt var59 426)))
(assert (= "M" (CharAt var19 718)))
(assert (= "<" (CharAt var21 506)))
(assert (= "d" (CharAt var19 861)))
(assert (= "_" (CharAt var25 974)))
(assert (= "P" (CharAt var44 59)))
(assert (= "u" (CharAt var18 391)))
(assert (= "6" (CharAt var42 566)))
(assert (= "8" (CharAt var40 826)))
(assert (= "W" (CharAt var23 489)))
(assert (= "n" (CharAt var20 517)))
(assert (= "G" (CharAt var50 563)))
(assert (= "M" (CharAt var18 218)))
(assert (= "U" (CharAt var26 372)))
(assert (= "d" (CharAt var0 129)))
(assert (= "7" (CharAt var44 131)))
(assert (= "0" (CharAt var53 37)))
(assert (= "l" (CharAt var5 42)))
(assert (= "x" (CharAt var24 645)))
(assert (= "*" (CharAt var36 726)))
(assert (= "r" (CharAt var19 574)))
(assert (= "g" (CharAt var53 938)))
(assert (= "`" (CharAt var26 339)))
(assert (= "O" (CharAt var49 637)))
(assert (= "i" (CharAt var2 821)))
(assert (= "L" (CharAt var8 574)))
(assert (= "_" (CharAt var6 533)))
(assert (= "0" (CharAt var24 507)))
(assert (= "[" (CharAt var60 619)))
(assert (= "0" (CharAt var50 847)))
(assert (= "|" (CharAt var48 657)))
(assert (= "m" (CharAt var56 716)))
(assert (= "~" (CharAt var58 1)))
(assert (= "=" (CharAt var50 424)))
(assert (= "9" (CharAt var50 564)))
(assert (= "g" (CharAt var42 606)))
(assert (= "N" (CharAt var32 565)))
(assert (= "g" (CharAt var48 247)))
(assert (= "r" (CharAt var42 633)))
(assert (= "u" (CharAt var49 258)))
(assert (= "p" (CharAt var40 982)))
(assert (= "Y" (CharAt var14 182)))
(assert (= "r" (CharAt var13 663)))
(assert (= "\"" (CharAt var12 638)))
(assert (= "q" (CharAt var39 389)))
(assert (= "," (CharAt var13 879)))
(assert (= "!" (CharAt var13 516)))
(assert (= "g" (CharAt var17 878)))
(assert (= "6" (CharAt var55 778)))
(assert (= "," (CharAt var34 117)))
(assert (= "r" (CharAt var33 21)))
(assert (= "%" (CharAt var45 446)))
(assert (= "2" (CharAt var21 314)))
(assert (= "o" (CharAt var52 476)))
(assert (= "$" (CharAt var36 837)))
(assert (= "R" (CharAt var17 284)))
(assert (= "\"" (CharAt var6 390)))
(assert (= "j" (CharAt var24 760)))
(assert (= "0" (CharAt var57 583)))
(assert (= "o" (CharAt var34 75)))
(assert (= "/" (CharAt var4 296)))
(assert (= "2" (CharAt var31 495)))
(assert (= "u" (CharAt var14 286)))
(assert (= "0" (CharAt var48 588)))
(assert (= "x" (CharAt var44 451)))
(assert (= "k" (CharAt var46 761)))
(assert (= "=" (CharAt var26 730)))
(assert (= "<" (CharAt var5 21)))
(assert (= "h" (CharAt var28 993)))
(assert (= "/" (CharAt var1 912)))
(assert (= "#" (CharAt var57 958)))
(assert (= "d" (CharAt var51 157)))
(assert (= "V" (CharAt var6 945)))
(assert (= "N" (CharAt var19 54)))
(assert (= "|" (CharAt var50 589)))
(assert (= "N" (CharAt var34 3)))
(assert (= "A" (CharAt var50 487)))
(assert (= "X" (CharAt var48 813)))
(assert (= "9" (CharAt var21 440)))
(assert (= "\\" (CharAt var32 708)))
(assert (= "z" (CharAt var3 462)))
(assert (= "%" (CharAt var37 401)))
(assert (= "%" (CharAt var30 742)))
(assert (= "T" (CharAt var18 995)))
(assert (= "V" (CharAt var52 726)))
(assert (= "u" (CharAt var59 698)))
(assert (= "q" (CharAt var54 89)))
(assert (= "," (CharAt var37 250)))
(assert (= "F" (CharAt var42 520)))
(assert (= ">" (CharAt var1 428)))
(assert (= "%" (CharAt var7 700)))
(assert (= "6" (CharAt var59 507)))
(assert (= "2" (CharAt var27 284)))
(assert (= "/" (CharAt var3 848)))
(assert (= "r" (CharAt var0 99)))
(assert (= "g" (CharAt var34 436)))
(assert (= "0" (CharAt var15 999)))
(assert (= "D" (CharAt var35 990)))
(assert (= "y" (CharAt var48 421)))
(assert (= "j" (CharAt var14 383)))
(assert (= "M" (CharAt var34 872)))
(assert (= "b" (CharAt var42 231)))
(assert (= "q" (CharAt var31 865)))
(assert (= "$" (CharAt var47 84)))
(assert (= "D" (CharAt var57 984)))
(assert (= "n" (CharAt var58 607)))
(assert (= "|" (CharAt var23 215)))
(assert (= "I" (CharAt var29 783)))
(assert (= "'" (CharAt var45 127)))
(assert (= "@" (CharAt var40 587)))
(assert (= "Y" (CharAt var3 769)))
(assert (= "t" (CharAt var0 506)))
(assert (= "~" (CharAt var27 912)))
(assert (= "y" (CharAt var44 725)))
(assert (= "g" (CharAt var5 918)))
(assert (= "/" (CharAt var27 434)))
(assert (= "i" (CharAt var19 865)))
(assert (= "0" (CharAt var0 127)))
(assert (= "u" (CharAt var20 920)))
(assert (= "A" (CharAt var38 886)))
(assert (= "I" (CharAt var50 327)))
(assert (= "S" (CharAt var46 65)))
(assert (= "g" (CharAt var7 367)))
(assert (= "X" (CharAt var35 441)))
(assert (= "l" (CharAt var18 756)))
(assert (= "z" (CharAt var14 74)))
(assert (= "c" (CharAt var9 903)))
(assert (= "3" (CharAt var59 892)))
(assert (= "," (CharAt var57 69)))
(assert (= "f" (CharAt var7 737)))
(assert (= "W" (CharAt var34 710)))
(assert (= "!" (CharAt var24 115)))
(assert (= "w" (CharAt var13 495)))
(assert (= "*" (CharAt var58 935)))
(assert (= "&" (CharAt var36 766)))
(assert (= "l" (CharAt var3 171)))
(assert (= "I" (CharAt var21 683)))
(assert (= "^" (CharAt var5 611)))
(assert (= "T" (CharAt var53 878)))
(assert (= "O" (CharAt var42 320)))
(assert (= "t" (CharAt var21 12)))
(assert (= "-" (CharAt var43 210)))
(assert (= "v" (CharAt var35 741)))
(assert (= "_" (CharAt var23 559)))
(assert (= "b" (CharAt var20 685)))
(assert (= "~" (CharAt var4 846)))
(assert (= "t" (CharAt var5 601)))
(assert (= "l" (CharAt var39 990)))
(assert (= "8" (CharAt var7 174)))
(assert (= "M" (CharAt var23 203)))
(assert (= "`" (CharAt var26 296)))
(assert (= "i" (CharAt var47 176)))
(assert (= "J" (CharAt var56 636)))
(assert (= "e" (CharAt var17 249)))
(assert (= "%" (CharAt var23 566)))
(assert (= "O" (CharAt var3 591)))
(assert (= "_" (CharAt var41 791)))
(assert (= "^" (CharAt var11 695)))
(assert (= "{" (CharAt var4 680)))
(assert (= "." (CharAt var33 469)))
(assert (= "z" (CharAt var42 556)))
(assert (= "E" (CharAt var20 531)))
(assert (= "l" (CharAt var0 234)))
(assert (= "s" (CharAt var13 936)))
(assert (= "*" (CharAt var34 763)))
(assert (= "f" (CharAt var59 895)))
(assert (= "s" (CharAt var17 300)))
(assert (= "]" (CharAt var51 352)))
(assert (= "C" (CharAt var4 883)))
(assert (= "s" (CharAt var21 850)))
(assert (= "k" (CharAt var37 302)))
(assert (= "t" (CharAt var43 518)))
(assert (= "J" (CharAt var6 898)))
(assert (= "b" (CharAt var23 658)))
(assert (= "J" (CharAt var55 582)))
(assert (= "Y" (CharAt var28 952)))
(assert (= "7" (CharAt var2 137)))
(assert (= "X" (CharAt var13 65)))
(assert (= "\"" (CharAt var18 505)))
(assert (= "7" (CharAt var19 634)))
(assert (= "]" (CharAt var4 870)))
(assert (= "c" (CharAt var36 905)))
(assert (= "\"" (CharAt var41 930)))
(assert (= "E" (CharAt var25 218)))
(assert (= "q" (CharAt var38 634)))
(assert (= "E" (CharAt var32 270)))
(assert (= "Z" (CharAt var14 541)))
(assert (= "p" (CharAt var14 871)))
(assert (= "J" (CharAt var30 576)))
(assert (= "@" (CharAt var20 830)))
(assert (= "2" (CharAt var32 620)))
(assert (= ">" (CharAt var30 729)))
(assert (= "`" (CharAt var40 735)))
(assert (= "3" (CharAt var23 415)))
(assert (= "d" (CharAt var43 57)))
(assert (= "F" (CharAt var25 830)))
(assert (= "U" (CharAt var2 738)))
(assert (= "[" (CharAt var23 419)))
(assert (= "#" (CharAt var33 832)))
(assert (= "T" (CharAt var7 859)))
(assert (= "V" (CharAt var17 436)))
(assert (= "~" (CharAt var49 993)))
(assert (= "6" (CharAt var12 248)))
(assert (= "u" (CharAt var26 151)))
(assert (= "?" (CharAt var37 35)))
(assert (= "?" (CharAt var22 821)))
(assert (= "2" (CharAt var31 218)))
(assert (= "a" (CharAt var40 512)))
(assert (= "2" (CharAt var32 518)))
(assert (= "x" (CharAt var45 908)))
(assert (= "(" (CharAt var13 833)))
(assert (= "\"" (CharAt var40 679)))
(assert (= "#" (CharAt var53 178)))
(assert (= ")" (CharAt var47 948)))
(assert (= "0" (CharAt var18 992)))
(assert (= "S" (CharAt var19 555)))
(assert (= "#" (CharAt var1 895)))
(assert (= "p" (CharAt var53 537)))
(assert (= "/" (CharAt var12 579)))
(assert (= "3" (CharAt var8 648)))
(assert (= "'" (CharAt var6 299)))
(assert (= "V" (CharAt var20 98)))
(assert (= "q" (CharAt var39 757)))
(assert (= "h" (CharAt var30 46)))
(assert (= "T" (CharAt var25 295)))
(assert (= "[" (CharAt var24 878)))
(assert (= "U" (CharAt var33 628)))
(assert (= "2" (CharAt var22 141)))
(assert (= "5" (CharAt var56 922)))
(assert (= "6" (CharAt var48 283)))
(assert (= "$" (CharAt var41 590)))
(assert (= "X" (CharAt var22 482)))
(assert (= "%" (CharAt var11 450)))
(assert (= "Y" (CharAt var43 798)))
(assert (= "1" (CharAt var29 406)))
(assert (= "8" (CharAt var58 3)))
(assert (= "W" (CharAt var43 434)))
(assert (= "T" (CharAt var57 627)))
(assert (= "K" (CharAt var23 871)))
(assert (= "\"" (CharAt var42 596)))
(assert (= "a" (CharAt var0 562)))
(assert (= "7" (CharAt var39 707)))
(assert (= "G" (CharAt var14 862)))
(assert (= "9" (CharAt var55 115)))
(assert (= "~" (CharAt var5 448)))
(assert (= "Q" (CharAt var50 281)))
(assert (= "G" (CharAt var15 200)))
(assert (= "*" (CharAt var13 159)))
(assert (= "e" (CharAt var16 869)))
(assert (= ":" (CharAt var9 633)))
(assert (= "0" (CharAt var21 170)))
(assert (= "#" (CharAt var8 869)))
(assert (= "J" (CharAt var51 341)))
(assert (= ")" (CharAt var23 482)))
(assert (= "9" (CharAt var12 352)))
(assert (= "H" (CharAt var6 838)))
(assert (= "J" (CharAt var17 239)))
(assert (= ">" (CharAt var11 102)))
(assert (= "$" (CharAt var6 613)))
(assert (= "S" (CharAt var40 154)))
(assert (= "r" (CharAt var38 450)))
(assert (= "!" (CharAt var6 415)))
(assert (= "/" (CharAt var40 182)))
(assert (= "\\" (CharAt var23 381)))
(assert (= "q" (CharAt var52 209)))
(assert (= "w" (CharAt var26 436)))
(assert (= "1" (CharAt var16 69)))
(assert (= "(" (CharAt var30 158)))
(assert (= "U" (CharAt var15 381)))
(assert (= "6" (CharAt var36 871)))
(assert (= "_" (CharAt var57 341)))
(assert (= "i" (CharAt var59 129)))
(assert (= "h" (CharAt var16 781)))
(assert (= "N" (CharAt var58 887)))
(assert (= "u" (CharAt var13 370)))
(assert (= "(" (CharAt var56 410)))
(assert (= "V" (CharAt var34 487)))
(assert (= "z" (CharAt var49 526)))
(assert (= "$" (CharAt var56 652)))
(assert (= "4" (CharAt var44 267)))
(assert (= "6" (CharAt var28 863)))
(assert (= "H" (CharAt var4 610)))
(assert (= "]" (CharAt var1 881)))
(assert (= "l" (CharAt var51 633)))
(assert (= "t" (CharAt var12 79)))
(assert (= "O" (CharAt var47 654)))
(assert (= "2" (CharAt var0 666)))
(assert (= "$" (CharAt var35 418)))
(assert (= "B" (CharAt var31 132)))
(assert (= "<" (CharAt var41 537)))
(assert (= "\"" (CharAt var27 3)))
(assert (= "~" (CharAt var20 737)))
(assert (= "t" (CharAt var15 497)))
(assert (= "5" (CharAt var23 127)))
(assert (= "^" (CharAt var8 327)))
(assert (= "#" (CharAt var47 295)))
(assert (= "@" (CharAt var17 82)))
(assert (= "@" (CharAt var33 210)))
(assert (= "/" (CharAt var50 653)))
(assert (= "~" (CharAt var22 291)))
(assert (= "G" (CharAt var60 775)))
(assert (= "X" (CharAt var29 581)))
(assert (= "9" (CharAt var30 455)))
(assert (= "O" (CharAt var24 766)))
(assert (= "#" (CharAt var39 793)))
(assert (= "3" (CharAt var0 152)))
(assert (= "C" (CharAt var47 398)))
(assert (= "$" (CharAt var53 678)))
(assert (= "Y" (CharAt var12 145)))
(assert (= "k" (CharAt var24 822)))
(assert (= "|" (CharAt var36 435)))
(assert (= "s" (CharAt var8 562)))
(assert (= "6" (CharAt var46 807)))
(assert (= "$" (CharAt var54 952)))
(assert (= "S" (CharAt var52 227)))
(assert (= "4" (CharAt var59 667)))
(assert (= "S" (CharAt var23 311)))
(assert (= "[" (CharAt var41 674)))
(assert (= "^" (CharAt var22 829)))
(assert (= "," (CharAt var0 803)))
(assert (= "\"" (CharAt var43 689)))
(assert (= "7" (CharAt var0 981)))
(assert (= "}" (CharAt var58 568)))
(assert (= "4" (CharAt var50 181)))
(assert (= "h" (CharAt var60 392)))
(assert (= "l" (CharAt var17 273)))
(assert (= "=" (CharAt var40 230)))
(assert (= "A" (CharAt var55 542)))
(assert (= "0" (CharAt var57 228)))
(assert (= "w" (CharAt var39 18)))
(assert (= "N" (CharAt var20 529)))
(assert (= "-" (CharAt var20 200)))
(assert (= "w" (CharAt var60 93)))
(assert (= "g" (CharAt var9 48)))
(assert (= "H" (CharAt var59 187)))
(assert (= "`" (CharAt var55 913)))
(assert (= "m" (CharAt var2 846)))
(assert (= "?" (CharAt var35 787)))
(assert (= "f" (CharAt var28 85)))
(assert (= "H" (CharAt var58 496)))
(assert (= "W" (CharAt var30 250)))
(assert (= "#" (CharAt var7 260)))
(assert (= "(" (CharAt var29 608)))
(assert (= "L" (CharAt var37 445)))
(assert (= "8" (CharAt var27 780)))
(assert (= "7" (CharAt var1 900)))
(assert (= "*" (CharAt var55 308)))
(assert (= "&" (CharAt var3 468)))
(assert (= "W" (CharAt var49 512)))
(assert (= "I" (CharAt var40 133)))
(assert (= "%" (CharAt var27 336)))
(assert (= "]" (CharAt var35 815)))
(assert (= "*" (CharAt var14 686)))
(assert (= "Z" (CharAt var49 655)))
(assert (= "*" (CharAt var44 732)))
(assert (= "b" (CharAt var38 704)))
(assert (= ">" (CharAt var10 794)))
(assert (= "1" (CharAt var21 978)))
(assert (= "." (CharAt var30 390)))
(assert (= "n" (CharAt var12 993)))
(assert (= "U" (CharAt var34 562)))
(assert (= "\"" (CharAt var52 51)))
(assert (= "F" (CharAt var29 471)))
(assert (= "'" (CharAt var28 376)))
(assert (= "V" (CharAt var58 946)))
(assert (= "r" (CharAt var1 526)))
(assert (= "6" (CharAt var10 116)))
(assert (= "c" (CharAt var19 631)))
(assert (= "6" (CharAt var23 548)))
(assert (= "S" (CharAt var11 88)))
(assert (= "&" (CharAt var28 336)))
(assert (= "f" (CharAt var43 660)))
(assert (= "c" (CharAt var33 992)))
(assert (= "o" (CharAt var17 442)))
(assert (= "#" (CharAt var23 3)))
(assert (= "|" (CharAt var26 201)))
(assert (= "_" (CharAt var52 640)))
(assert (= "@" (CharAt var58 789)))
(assert (= "p" (CharAt var47 925)))
(assert (= "t" (CharAt var23 759)))
(assert (= "!" (CharAt var24 308)))
(assert (= "u" (CharAt var52 97)))
(assert (= "6" (CharAt var28 390)))
(assert (= "t" (CharAt var33 627)))
(assert (= "f" (CharAt var50 677)))
(assert (= "q" (CharAt var24 35)))
(assert (= "D" (CharAt var23 959)))
(assert (= "8" (CharAt var0 711)))
(assert (= "r" (CharAt var43 501)))
(assert (= "^" (CharAt var27 456)))
(assert (= "h" (CharAt var27 929)))
(assert (= "f" (CharAt var27 85)))
(assert (= "T" (CharAt var23 232)))
(assert (= "_" (CharAt var10 994)))
(assert (= "n" (CharAt var37 709)))
(assert (= ">" (CharAt var21 422)))
(assert (= "B" (CharAt var3 515)))
(assert (= "l" (CharAt var36 870)))
(assert (= "+" (CharAt var38 646)))
(assert (= "P" (CharAt var55 228)))
(assert (= "2" (CharAt var23 343)))
(assert (= "E" (CharAt var6 362)))
(assert (= "$" (CharAt var20 504)))
(assert (= "]" (CharAt var26 580)))
(assert (= "q" (CharAt var32 460)))
(assert (= ")" (CharAt var3 792)))
(assert (= "`" (CharAt var41 497)))
(assert (= "|" (CharAt var22 463)))
(assert (= "s" (CharAt var52 326)))
(assert (= "?" (CharAt var13 762)))
(assert (= "m" (CharAt var13 685)))
(assert (= "<" (CharAt var0 43)))
(assert (= "}" (CharAt var23 985)))
(assert (= "T" (CharAt var28 696)))
(assert (= "M" (CharAt var15 711)))
(assert (= "u" (CharAt var37 121)))
(assert (= "n" (CharAt var36 251)))
(assert (= ";" (CharAt var30 155)))
(assert (= "!" (CharAt var26 438)))
(assert (= "L" (CharAt var14 159)))
(assert (= "q" (CharAt var0 111)))
(assert (= "r" (CharAt var7 966)))
(assert (= ")" (CharAt var0 0)))
(assert (= "<" (CharAt var56 173)))
(assert (= "\\" (CharAt var15 898)))
(assert (= "," (CharAt var3 755)))
(assert (= "i" (CharAt var5 807)))
(assert (= "y" (CharAt var3 238)))
(assert (= "\"" (CharAt var6 807)))
(assert (= "h" (CharAt var37 885)))
(assert (= "\"" (CharAt var60 804)))
(assert (= "d" (CharAt var0 653)))
(assert (= "+" (CharAt var35 563)))
(assert (= "F" (CharAt var5 766)))
(assert (= "\"" (CharAt var35 105)))
(assert (= "E" (CharAt var46 37)))
(assert (= "i" (CharAt var52 806)))
(assert (= "(" (CharAt var16 542)))
(assert (= "8" (CharAt var57 7)))
(assert (= "*" (CharAt var4 573)))
(assert (= "U" (CharAt var56 689)))
(assert (= "3" (CharAt var53 211)))
(assert (= "x" (CharAt var56 250)))
(assert (= "?" (CharAt var21 661)))
(assert (= "1" (CharAt var20 857)))
(assert (= ";" (CharAt var20 442)))
(assert (= "H" (CharAt var5 854)))
(assert (= "H" (CharAt var8 789)))
(assert (= "6" (CharAt var55 678)))
(assert (= "4" (CharAt var60 46)))
(assert (= "Z" (CharAt var11 465)))
(assert (= "x" (CharAt var44 737)))
(assert (= "'" (CharAt var48 66)))
(assert (= "2" (CharAt var43 476)))
(assert (= ":" (CharAt var49 373)))
(assert (= "c" (CharAt var47 705)))
(assert (= "A" (CharAt var6 91)))
(assert (= "B" (CharAt var5 199)))
(assert (= "c" (CharAt var39 311)))
(assert (= "s" (CharAt var47 442)))
(assert (= "q" (CharAt var59 277)))
(assert (= "y" (CharAt var49 997)))
(assert (= "!" (CharAt var49 17)))
(assert (= "7" (CharAt var17 201)))
(assert (= "2" (CharAt var32 359)))
(assert (= "D" (CharAt var18 804)))
(assert (= "<" (CharAt var38 398)))
(assert (= "L" (CharAt var47 783)))
(assert (= "=" (CharAt var53 894)))
(assert (= "=" (CharAt var47 380)))
(assert (= "(" (CharAt var42 79)))
(assert (= "E" (CharAt var6 272)))
(assert (= "Y" (CharAt var5 309)))
(assert (= "F" (CharAt var2 415)))
(assert (= "<" (CharAt var10 573)))
(assert (= "1" (CharAt var44 583)))
(assert (= "$" (CharAt var32 661)))
(assert (= "B" (CharAt var46 261)))
(assert (= "|" (CharAt var22 948)))
(assert (= "+" (CharAt var4 477)))
(assert (= "7" (CharAt var18 586)))
(assert (= "G" (CharAt var9 29)))
(assert (= "x" (CharAt var8 425)))
(assert (= "n" (CharAt var50 785)))
(assert (= "|" (CharAt var38 615)))
(assert (= "," (CharAt var58 572)))
(assert (= "," (CharAt var33 456)))
(assert (= "(" (CharAt var44 699)))
(assert (= "'" (CharAt var20 668)))
(assert (= "M" (CharAt var18 695)))
(assert (= "'" (CharAt var18 136)))
(assert (= "x" (CharAt var2 131)))
(assert (= "{" (CharAt var45 234)))
(assert (= "U" (CharAt var25 387)))
(assert (= "[" (CharAt var22 413)))
(assert (= "?" (CharAt var59 409)))
(assert (= "'" (CharAt var40 221)))
(assert (= "D" (CharAt var14 630)))
(assert (= "#" (CharAt var25 916)))
(assert (= ";" (CharAt var35 240)))
(assert (= "I" (CharAt var32 944)))
(assert (= "_" (CharAt var58 700)))
(assert (= "-" (CharAt var0 946)))
(assert (= "*" (CharAt var5 636)))
(assert (= "E" (CharAt var20 965)))
(assert (= "c" (CharAt var40 784)))
(assert (= "^" (CharAt var14 933)))
(assert (= "X" (CharAt var28 151)))
(assert (= "e" (CharAt var31 975)))
(assert (= "j" (CharAt var26 863)))
(assert (= "&" (CharAt var12 447)))
(assert (= "|" (CharAt var35 794)))
(assert (= "p" (CharAt var25 231)))
(assert (= "7" (CharAt var44 195)))
(assert (= "Q" (CharAt var28 331)))
(assert (= "C" (CharAt var29 286)))
(assert (= "<" (CharAt var21 393)))
(assert (= "x" (CharAt var13 425)))
(assert (= "G" (CharAt var2 987)))
(assert (= "E" (CharAt var2 944)))
(assert (= "z" (CharAt var3 1000)))
(assert (= "H" (CharAt var33 136)))
(assert (= "I" (CharAt var44 715)))
(assert (= "i" (CharAt var36 350)))
(assert (= "o" (CharAt var51 101)))
(assert (= "C" (CharAt var44 352)))
(assert (= "n" (CharAt var32 693)))
(assert (= "%" (CharAt var41 470)))
(assert (= "X" (CharAt var2 685)))
(assert (= "B" (CharAt var19 448)))
(assert (= "w" (CharAt var12 204)))
(assert (= "M" (CharAt var8 749)))
(assert (= "~" (CharAt var49 182)))
(assert (= "N" (CharAt var46 695)))
(assert (= "9" (CharAt var53 209)))
(assert (= "=" (CharAt var2 744)))
(assert (= "H" (CharAt var48 743)))
(assert (= "4" (CharAt var8 986)))
(assert (= "," (CharAt var12 733)))
(assert (= "K" (CharAt var51 409)))
(assert (= "y" (CharAt var54 278)))
(assert (= "S" (CharAt var46 564)))
(assert (= "P" (CharAt var35 745)))
(assert (= "'" (CharAt var6 568)))
(assert (= "0" (CharAt var0 83)))
(assert (= "d" (CharAt var50 476)))
(assert (= ":" (CharAt var60 76)))
(assert (= "5" (CharAt var45 833)))
(assert (= "W" (CharAt var59 181)))
(assert (= "B" (CharAt var23 305)))
(assert (= "C" (CharAt var23 345)))
(assert (= "_" (CharAt var12 726)))
(assert (= "H" (CharAt var52 260)))
(assert (= "[" (CharAt var42 262)))
(assert (= "u" (CharAt var30 299)))
(assert (= "A" (CharAt var24 929)))
(assert (= "}" (CharAt var30 527)))
(assert (= "F" (CharAt var38 586)))
(assert (= "6" (CharAt var10 699)))
(assert (= "l" (CharAt var0 527)))
(assert (= "," (CharAt var37 79)))
(assert (= "w" (CharAt var2 319)))
(assert (= "<" (CharAt var4 966)))
(assert (= "9" (CharAt var14 559)))
(assert (= "@" (CharAt var6 630)))
(assert (= "," (CharAt var27 669)))
(assert (= "V" (CharAt var55 266)))
(assert (= "+" (CharAt var38 260)))
(assert (= "G" (CharAt var16 56)))
(assert (= "O" (CharAt var0 17)))
(assert (= "j" (CharAt var42 17)))
(assert (= "t" (CharAt var55 854)))
(assert (= "r" (CharAt var24 127)))
(assert (= "C" (CharAt var54 345)))
(assert (= "e" (CharAt var24 689)))
(assert (= "Y" (CharAt var34 271)))
(assert (= "4" (CharAt var5 835)))
(assert (= "k" (CharAt var55 834)))
(check-sat)